NAME : Tnm52.tsp
COMMENT : 52-city problem, points on edges of tetrahedron. n = 11  m = 7 (Hougardy + Zhong)
TYPE : TSP
DIMENSION : 4
EDGE_WEIGHT_TYPE : EUC_2D
NODE_COORD_SECTION
10 0 0
2 0 1
3 1 0
4 2 2
EOF
